40
    53    49    10    85    87   100    93    76    15    63     5    88    24    31    30    29    23    52    32    11    55    27    53    47    88     9    13    56    17     5    10    59    68    75    21    79    94    31   100    43
     7     2    10     1     1     8     5    10     8     2     8     7     7     1    10     4    10     1     6     5     3     2     3     7     3     1     4     4     4     2     4     4     9     2    10     4    10     5     6     3
   288   199     0     0   320    67   355   554     0   289     0     0   203   448     0   216   220   472     0     0    84   314     0     0   393   201     0   239     0   316   499   130   116     0   424   125   360   354   516     0
